199 109 76 61 52 13 148 108 85 66 166 79 134 86 97 142 158 20 118 130 124 164 150 92 72 103 2 81 65 88 145 175 98 3 14 162 184 156 11 78 178 21 7 133 36 37 182 23 173 194 83 102 177 159 80 35 67 155 58 165 138 5 42 64 31 140 137 54 170 100 74 168 172 46 193 179 43 107 10 180 191 28 160 29 101 73 32 123 171 84 169 59 30 187 26 127 77 110 56 104 22 91 34 0 33 105 106 141 190 131 161 8 19 119 24 82 143 176 197 93 167 154 41 135 47 125 99 60 94 151 126 114 196 111 144 198 4 1 50 44 63 153 55 146 27 51 157 185 87 132 149 121 9 39 6 152 89 17 174 62 122 68 45 90 96 48 40 163 192 112 18 71 181 189 69 12 38 195 113 186 49 116 70 188 129 117 57 95 147 75 15 25 139 53 136 115 16 183 120 128 

